0 0 0 0
0 1 0 0
0 2 0 0
0 3 0 0
0 4 0 8
0 5 0 9
0 6 0 11
0 7 0 10
0 8 0 30
0 9 0 29
0 10 0 16
0 11 0 17
0 12 0 19
0 13 0 17
0 14 0 16
0 15 0 38
0 16 0 28
0 17 0 19
0 18 0 26
0 19 0 22
0 20 0 14
0 21 0 43
0 22 0 39
0 23 0 43
0 24 0 52
0 25 0 38
0 26 0 39
0 27 0 46
0 28 0 64
0 29 0 12
0 30 0 38
0 31 0 30
0 32 0 80
0 33 0 50
0 34 0 48
0 35 0 94
0 36 0 51
0 37 0 80
0 38 0 46
0 39 0 21
0 40 0 61
0 41 0 55
0 42 0 55
0 43 0 103
0 44 0 70
0 45 0 48
0 46 0 38
0 47 0 62
0 48 0 52
0 49 0 72
0 50 0 71
0 51 0 63
0 52 0 91
0 53 0 73
0 54 0 94
0 55 0 93
0 56 0 72
0 57 0 80
0 58 0 64
0 59 0 97
0 60 0 92
0 61 0 117
0 62 0 88
0 63 0 90
0 64 0 124
0 65 0 130
0 66 0 108
0 67 0 79
0 68 0 108
0 69 0 117
0 70 0 103
0 71 0 86
0 72 0 135
0 73 0 110
0 74 0 88
0 75 0 98
0 76 0 98
0 77 0 126
0 78 0 104
0 79 0 124
0 80 0 118
0 81 0 130
0 82 0 111
0 83 0 131
0 84 0 105
0 85 0 128
0 86 0 126
0 87 0 131
0 88 0 138
0 89 0 134
0 90 0 135
0 91 0 139
